coords = array2d(1..71, 1..2, [207, 180, 431, 483, 467, 165, 239, 991, 430,
    545, 641, 772, 435, 150, 813, 286, 984, 684, 827, 937, 962, 934,
    941, 785, 182, 544, 859, 16, 858, 701, 846, 207, 208, 838, 712,
    353, 348, 627, 66, 51, 336, 998, 239, 347, 880, 416, 603, 86, 404,
    425, 466, 618, 310, 773, 37, 832, 137, 874, 351, 449, 973, 266,
    798, 364, 259, 431, 623, 302, 485, 222, 198, 479, 288, 823, 3,
    821, 377, 757, 519, 778, 638, 610, 285, 494, 42, 334, 228, 192,
    482, 196, 506, 223, 348, 365, 718, 21, 899, 867, 277, 364, 848,
    765, 488, 962, 33, 877, 854, 585, 598, 64, 751, 457, 728, 74, 65,
    537, 709, 685, 88, 946, 122, 984, 215, 410, 391, 825, 421, 730,
    230, 498, 207, 658, 137, 618, 60, 102, 389, 526, 555, 899, 412,
    921]);

n = 71;

